c defined variables: 4 9 13 18 22 27 31 35 36 37 38 42 46 51 55 59 64 68 72 73 74 78 82 86 87 88 89 93 97 101 105 109 113 114 118 119 120 124 128 132 133 134 138 142 146 147 148 149 153 157 161 162 163 164 168 172 173 174 178 182 186 187 188 192 196 197 198 202 206 207 208 212 216 220 224 228 232 236 240 241 242 243 247 251 255 259 266 270 274 278 279 280 284 291 292 293 294 303 307 311 315 319 320 324 325 326 330 334 338 339 340 344 348 352 353 357 361 365 372 378 382 383 384 388 392 398 399 403 407 408 409 413 417 418 419 422 423 425 426 427 428 431 432 433 434 437 438 439 440 444 447 448 451 452 455 456 457 458 459 460 463 
p cnf 1515 1691
a 387 360 364 377 368 371 395 381 402 412 58 62 77 67 81 54 49 92 34 96 406 416 343 306 265 273 283 287 347 290 277 269 21 25 45 16 41 30 12 1 6 356 391 333 310 329 318 314 323 337 351 223 250 219 205 215 211 201 185 195 191 50 7 26 2 3 17 63 8 227 231 246 235 254 297 239 302 262 258 123 104 127 137 100 141 85 71 108 112 152 177 167 156 117 131 145 181 160 171 0
e 5 10 11 14 15 19 20 23 24 28 29 32 33 39 40 43 44 47 48 52 53 56 57 60 61 65 66 69 70 75 76 79 80 83 84 90 91 94 95 98 99 102 103 106 107 110 111 115 116 121 122 125 126 129 130 135 136 139 140 143 144 150 151 154 155 158 159 165 166 169 170 175 176 179 180 183 184 189 190 193 194 199 200 203 204 209 210 213 214 217 218 221 222 225 226 229 230 233 234 237 238 244 245 248 249 252 253 256 257 260 261 263 264 267 268 271 272 275 276 281 282 285 286 288 289 295 296 299 300 301 304 305 308 309 312 313 316 317 321 322 327 328 331 332 335 336 341 342 345 346 349 350 354 355 358 359 362 363 366 367 369 370 374 375 376 379 380 385 386 389 390 393 394 397 400 401 404 405 410 411 414 415 420 421 424 429 430 435 436 441 442 443 445 446 449 450 453 454 461 462 4 9 13 18 22 27 31 35 36 37 38 42 46 51 55 59 64 68 72 73 74 78 82 86 87 88 89 93 97 101 105 109 113 114 118 119 120 124 128 132 133 134 138 142 146 147 148 149 153 157 161 162 163 164 168 172 173 174 178 182 186 187 188 192 196 197 198 202 206 207 208 212 216 220 224 228 232 236 240 241 242 243 247 251 255 259 266 270 274 278 279 280 284 291 292 293 294 303 307 311 315 319 320 324 325 326 330 334 338 339 340 344 348 352 353 357 361 365 372 378 382 383 384 388 392 398 399 403 407 408 409 413 417 418 419 422 423 425 426 427 428 431 432 433 434 437 438 439 440 444 447 448 451 452 455 456 457 458 459 460 463 1356 1357 1358 1359 1360 1361 1362 1363 1364 1365 1366 1367 1368 1369 1370 1371 1372 1373 1374 1375 1376 1377 1378 1379 1380 1381 1382 1383 1384 1385 1386 1387 1388 1389 1390 1391 1392 1393 1394 1395 1396 1397 1398 1399 1400 1401 1402 1403 1404 1405 1406 1407 1408 1409 1410 1411 1412 1413 1414 1415 1416 1417 1418 1419 1420 1421 1422 1423 1424 1425 1426 1427 1428 1429 1430 1431 1432 1433 1434 1435 1436 1437 1438 1439 1440 1441 1442 1443 1444 1445 1446 1447 1448 1449 1450 1451 1452 1453 1454 1455 1456 1457 1458 1459 1460 1461 1462 1463 1464 1465 1466 1467 1468 1469 1470 1471 1472 1473 1474 1475 1476 1477 1478 1479 1480 1481 1482 1483 1484 1485 1486 1487 1488 1489 1490 1491 1492 1493 1494 1495 1496 1497 1498 1499 1500 1501 1502 1503 1504 1505 1506 1507 1508 1509 1510 1511 1512 1513 1514 1515 0
d 298 262 287 0
d 373 368 0
d 396 356 351 0
1357 -4 0
-1357 4 0
1358 -9 0
-1358 9 0
-1361 -13 0
1361 13 0
1362 -18 0
-1362 18 0
1363 -22 0
-1363 22 0
1364 -27 0
-1364 27 0
-1367 -31 0
1367 31 0
-1356 -35 0
1356 35 0
-1356 -36 0
1356 36 0
1359 -37 0
-1359 37 0
-1368 -38 0
1368 38 0
-1371 -42 0
1371 42 0
-1374 -46 0
1374 46 0
1375 -51 0
-1375 51 0
1376 -55 0
-1376 55 0
1377 -59 0
-1377 59 0
1378 -64 0
-1378 64 0
-1381 -68 0
1381 68 0
1369 -72 0
-1369 72 0
1365 -73 0
-1365 73 0
-1382 -74 0
1382 74 0
-1385 -78 0
1385 78 0
-1388 -82 0
1388 82 0
-1356 -86 0
1356 86 0
-1356 -87 0
1356 87 0
1372 -88 0
-1372 88 0
1389 -89 0
-1389 89 0
-1392 -93 0
1392 93 0
-1395 -97 0
1395 97 0
1396 -101 0
-1396 101 0
1397 -105 0
-1397 105 0
1398 -109 0
-1398 109 0
-1356 -113 0
1356 113 0
1399 -114 0
-1399 114 0
1383 -118 0
-1383 118 0
1379 -119 0
-1379 119 0
-1400 -120 0
1400 120 0
-1403 -124 0
1403 124 0
-1406 -128 0
1406 128 0
1390 -132 0
-1390 132 0
1386 -133 0
-1386 133 0
-1407 -134 0
1407 134 0
-1410 -138 0
1410 138 0
-1413 -142 0
1413 142 0
-1356 -146 0
1356 146 0
-1356 -147 0
1356 147 0
1393 -148 0
-1393 148 0
1414 -149 0
-1414 149 0
1415 -153 0
-1415 153 0
1416 -157 0
-1416 157 0
1401 -161 0
-1401 161 0
-1356 -162 0
1356 162 0
-1356 -163 0
1356 163 0
1417 -164 0
-1417 164 0
-1420 -168 0
1420 168 0
1408 -172 0
-1408 172 0
1404 -173 0
-1404 173 0
-1421 -174 0
1421 174 0
-1424 -178 0
1424 178 0
-1427 -182 0
1427 182 0
1428 -186 0
-1428 186 0
1411 -187 0
-1411 187 0
-1429 -188 0
1429 188 0
1430 -192 0
-1430 192 0
1422 -196 0
-1422 196 0
1418 -197 0
-1418 197 0
-1431 -198 0
1431 198 0
-1434 -202 0
1434 202 0
1435 -206 0
-1435 206 0
1425 -207 0
-1425 207 0
-1436 -208 0
1436 208 0
1357 -212 0
-1357 212 0
1358 -216 0
-1358 216 0
-1439 -220 0
1439 220 0
1362 -224 0
-1362 224 0
1363 -228 0
-1363 228 0
1364 -232 0
-1364 232 0
-1442 -236 0
1442 236 0
-1356 -240 0
1356 240 0
-1356 -241 0
1356 241 0
1437 -242 0
-1437 242 0
1443 -243 0
-1443 243 0
-1446 -247 0
1446 247 0
-1449 -251 0
1449 251 0
1375 -255 0
-1375 255 0
1376 -259 0
-1376 259 0
1377 -266 0
-1377 266 0
1378 -270 0
-1378 270 0
-1452 -274 0
1452 274 0
1444 -278 0
-1444 278 0
1440 -279 0
-1440 279 0
-1453 -280 0
1453 280 0
-1456 -284 0
1456 284 0
-1356 -291 0
1356 291 0
-1356 -292 0
1356 292 0
1447 -293 0
-1447 293 0
1457 -294 0
-1457 294 0
-1460 -303 0
1460 303 0
1396 -307 0
-1396 307 0
1397 -311 0
-1397 311 0
1398 -315 0
-1398 315 0
-1356 -319 0
1356 319 0
1461 -320 0
-1461 320 0
1454 -324 0
-1454 324 0
1450 -325 0
-1450 325 0
-1462 -326 0
1462 326 0
-1465 -330 0
1465 330 0
-1468 -334 0
1468 334 0
1469 -338 0
-1469 338 0
1470 -339 0
-1470 339 0
-1471 -340 0
1471 340 0
-1474 -344 0
1474 344 0
-1477 -348 0
1477 348 0
-1356 -352 0
1356 352 0
-1356 -353 0
1356 353 0
1458 -357 0
-1458 357 0
1415 -361 0
-1415 361 0
1416 -365 0
-1416 365 0
1463 -372 0
-1463 372 0
1480 -378 0
-1480 378 0
1472 -382 0
-1472 382 0
1466 -383 0
-1466 383 0
-1481 -384 0
1481 384 0
-1484 -388 0
1484 388 0
-1487 -392 0
1487 392 0
1475 -398 0
-1475 398 0
-1488 -399 0
1488 399 0
1430 -403 0
-1430 403 0
1482 -407 0
-1482 407 0
1480 -408 0
-1480 408 0
-1489 -409 0
1489 409 0
-1492 -413 0
1492 413 0
1493 -417 0
-1493 417 0
1485 -418 0
-1485 418 0
-1494 -419 0
1494 419 0
1495 -422 0
-1495 422 0
1495 -423 0
-1495 423 0
-1356 -425 0
1356 425 0
1496 -426 0
-1496 426 0
-1356 -427 0
1356 427 0
1497 -428 0
-1497 428 0
-1356 -431 0
1356 431 0
1498 -432 0
-1498 432 0
-1356 -433 0
1356 433 0
1499 -434 0
-1499 434 0
-1356 -437 0
1356 437 0
1500 -438 0
-1500 438 0
-1356 -439 0
1356 439 0
1501 -440 0
-1501 440 0
-1503 -444 0
1503 444 0
-1505 -447 0
1505 447 0
-1507 -448 0
1507 448 0
-1510 -451 0
1510 451 0
-1513 -452 0
1513 452 0
1508 -455 0
-1508 455 0
1490 -456 0
-1490 456 0
-1514 -457 0
1514 457 0
1511 -458 0
-1511 458 0
1432 -459 0
-1432 459 0
-1515 -460 0
1515 460 0
1356 -463 0
-1356 463 0
463 0
-463 421 462 0
-421 415 -420 0
-415 411 -414 0
-411 405 -410 0
-405 401 -404 0
-401 394 -400 0
-394 390 -393 0
-390 386 -389 0
-386 380 -385 0
-380 376 -379 0
-376 370 -375 0
-370 367 -369 0
-367 363 -366 0
-363 359 -362 0
-359 355 -358 0
-355 350 -354 0
-350 346 -349 0
-346 342 -345 0
-342 336 -341 0
-336 332 -335 0
-332 328 -331 0
-328 322 -327 0
-322 317 -321 0
-317 313 -316 0
-313 309 -312 0
-309 305 -308 0
-305 301 -304 0
-301 296 -300 0
-296 289 -295 0
-289 286 -288 0
-286 282 -285 0
-282 276 -281 0
-276 272 -275 0
-272 268 -271 0
-268 264 -267 0
-264 261 -263 0
-261 257 -260 0
-257 253 -256 0
-253 249 -252 0
-249 245 -248 0
-245 238 -244 0
-238 234 -237 0
-234 230 -233 0
-230 226 -229 0
-226 222 -225 0
-222 218 -221 0
-218 214 -217 0
-214 210 -213 0
-210 204 -209 0
-204 200 -203 0
-200 194 -199 0
-194 190 -193 0
-190 184 -189 0
-184 180 -183 0
-180 176 -179 0
-176 170 -175 0
-170 166 -169 0
-166 159 -165 0
-159 155 -158 0
-155 151 -154 0
-151 144 -150 0
-144 140 -143 0
-140 136 -139 0
-136 130 -135 0
-130 126 -129 0
-126 122 -125 0
-122 116 -121 0
-116 111 -115 0
-111 107 -110 0
-107 103 -106 0
-103 99 -102 0
-99 95 -98 0
-95 91 -94 0
-91 84 -90 0
-84 80 -83 0
-80 76 -79 0
-76 70 -75 0
-70 66 -69 0
-66 61 -65 0
-61 57 -60 0
-57 53 -56 0
-53 48 -52 0
-48 44 -47 0
-44 40 -43 0
-40 33 -39 0
-33 29 -32 0
-29 24 -28 0
-24 20 -23 0
-20 15 -19 0
-15 11 -14 0
-11 -5 -10 0
1 4 5 0
-1 -4 5 0
-2 -3 4 0
-4 2 0
-4 3 0
6 9 10 0
-6 -9 10 0
-7 -8 9 0
-9 7 0
-9 8 0
12 -13 14 0
-12 13 14 0
-13 -1 6 0
-13 1 -6 0
1 6 13 0
-1 -6 13 0
16 18 19 0
-16 -18 19 0
-2 -17 18 0
-18 2 0
-18 17 0
21 22 23 0
-21 -22 23 0
-7 -3 22 0
-22 7 0
-22 3 0
25 27 28 0
-25 -27 28 0
-26 -8 27 0
-27 26 0
-27 8 0
30 -31 32 0
-30 31 32 0
-31 -21 25 0
-31 21 -25 0
21 25 31 0
-21 -25 31 0
34 38 39 0
-34 -38 39 0
-36 37 38 0
36 -37 38 0
-36 -37 38 0
-12 -35 36 0
-2 2 35 0
-1 -6 37 0
-38 36 37 0
-36 12 0
-36 35 0
-35 2 0
-35 -2 0
-37 1 0
-37 6 0
41 -42 43 0
-41 42 43 0
-42 -30 34 0
-42 30 -34 0
30 34 42 0
-30 -34 42 0
45 -46 47 0
-45 46 47 0
-46 -16 41 0
-46 16 -41 0
16 41 46 0
-16 -41 46 0
49 51 52 0
-49 -51 52 0
-2 -50 51 0
-51 2 0
-51 50 0
54 55 56 0
-54 -55 56 0
-7 -17 55 0
-55 7 0
-55 17 0
58 59 60 0
-58 -59 60 0
-26 -3 59 0
-59 26 0
-59 3 0
62 64 65 0
-62 -64 65 0
-63 -8 64 0
-64 63 0
-64 8 0
67 -68 69 0
-67 68 69 0
-68 -58 62 0
-68 58 -62 0
58 62 68 0
-58 -62 68 0
71 74 75 0
-71 -74 75 0
-72 73 74 0
72 -73 74 0
-72 -73 74 0
-30 -34 72 0
-21 -25 73 0
-74 72 73 0
-72 30 0
-72 34 0
-73 21 0
-73 25 0
77 -78 79 0
-77 78 79 0
-78 -67 71 0
-78 67 -71 0
67 71 78 0
-67 -71 78 0
81 -82 83 0
-81 82 83 0
-82 -54 77 0
-82 54 -77 0
54 77 82 0
-54 -77 82 0
85 89 90 0
-85 -89 90 0
-87 88 89 0
87 -88 89 0
-87 -88 89 0
-45 -86 87 0
-2 2 86 0
-16 -41 88 0
-89 87 88 0
-87 45 0
-87 86 0
-86 2 0
-86 -2 0
-88 16 0
-88 41 0
92 -93 94 0
-92 93 94 0
-93 -81 85 0
-93 81 -85 0
81 85 93 0
-81 -85 93 0
96 -97 98 0
-96 97 98 0
-97 -49 92 0
-97 49 -92 0
49 92 97 0
-49 -92 97 0
100 101 102 0
-100 -101 102 0
-7 -50 101 0
-101 7 0
-101 50 0
104 105 106 0
-104 -105 106 0
-26 -17 105 0
-105 26 0
-105 17 0
108 109 110 0
-108 -109 110 0
-63 -3 109 0
-109 63 0
-109 3 0
112 -114 115 0
-112 114 115 0
-114 -108 113 0
-114 108 -113 0
-113 2 0
-113 -2 0
-2 2 113 0
108 113 114 0
-108 -113 114 0
-2 2 113 0
-113 2 0
-113 -2 0
117 120 121 0
-117 -120 121 0
-118 119 120 0
118 -119 120 0
-118 -119 120 0
-67 -71 118 0
-58 -62 119 0
-120 118 119 0
-118 67 0
-118 71 0
-119 58 0
-119 62 0
123 -124 125 0
-123 124 125 0
-124 -112 117 0
-124 112 -117 0
112 117 124 0
-112 -117 124 0
127 -128 129 0
-127 128 129 0
-128 -104 123 0
-128 104 -123 0
104 123 128 0
-104 -123 128 0
131 134 135 0
-131 -134 135 0
-132 133 134 0
132 -133 134 0
-132 -133 134 0
-81 -85 132 0
-54 -77 133 0
-134 132 133 0
-132 81 0
-132 85 0
-133 54 0
-133 77 0
137 -138 139 0
-137 138 139 0
-138 -127 131 0
-138 127 -131 0
127 131 138 0
-127 -131 138 0
141 -142 143 0
-141 142 143 0
-142 -100 137 0
-142 100 -137 0
100 137 142 0
-100 -137 142 0
145 149 150 0
-145 -149 150 0
-147 148 149 0
147 -148 149 0
-147 -148 149 0
-96 -146 147 0
-2 2 146 0
-49 -92 148 0
-149 147 148 0
-147 96 0
-147 146 0
-146 2 0
-146 -2 0
-148 49 0
-148 92 0
152 153 154 0
-152 -153 154 0
-26 -50 153 0
-153 26 0
-153 50 0
156 157 158 0
-156 -157 158 0
-63 -17 157 0
-157 63 0
-157 17 0
160 164 165 0
-160 -164 165 0
-161 163 164 0
161 -163 164 0
-161 -163 164 0
-112 -117 161 0
-108 -162 163 0
-2 2 162 0
-164 161 163 0
-161 112 0
-161 117 0
-163 108 0
-163 162 0
-162 2 0
-162 -2 0
167 -168 169 0
-167 168 169 0
-168 -156 160 0
-168 156 -160 0
156 160 168 0
-156 -160 168 0
171 174 175 0
-171 -174 175 0
-172 173 174 0
172 -173 174 0
-172 -173 174 0
-127 -131 172 0
-104 -123 173 0
-174 172 173 0
-172 127 0
-172 131 0
-173 104 0
-173 123 0
177 -178 179 0
-177 178 179 0
-178 -167 171 0
-178 167 -171 0
167 171 178 0
-167 -171 178 0
181 -182 183 0
-181 182 183 0
-182 -152 177 0
-182 152 -177 0
152 177 182 0
-152 -177 182 0
185 188 189 0
-185 -188 189 0
-186 187 188 0
186 -187 188 0
-186 -187 188 0
-141 -145 186 0
-100 -137 187 0
-188 186 187 0
-186 141 0
-186 145 0
-187 100 0
-187 137 0
191 192 193 0
-191 -192 193 0
-63 -50 192 0
-192 63 0
-192 50 0
195 198 199 0
-195 -198 199 0
-196 197 198 0
196 -197 198 0
-196 -197 198 0
-167 -171 196 0
-156 -160 197 0
-198 196 197 0
-196 167 0
-196 171 0
-197 156 0
-197 160 0
201 -202 203 0
-201 202 203 0
-202 -191 195 0
-202 191 -195 0
191 195 202 0
-191 -195 202 0
205 208 209 0
-205 -208 209 0
-206 207 208 0
206 -207 208 0
-206 -207 208 0
-181 -185 206 0
-152 -177 207 0
-208 206 207 0
-206 181 0
-206 185 0
-207 152 0
-207 177 0
211 212 213 0
-211 -212 213 0
-2 -3 212 0
-212 2 0
-212 3 0
215 216 217 0
-215 -216 217 0
-7 -8 216 0
-216 7 0
-216 8 0
219 -220 221 0
-219 220 221 0
-220 -211 215 0
-220 211 -215 0
211 215 220 0
-211 -215 220 0
223 224 225 0
-223 -224 225 0
-2 -17 224 0
-224 2 0
-224 17 0
227 228 229 0
-227 -228 229 0
-7 -3 228 0
-228 7 0
-228 3 0
231 232 233 0
-231 -232 233 0
-26 -8 232 0
-232 26 0
-232 8 0
235 -236 237 0
-235 236 237 0
-236 -227 231 0
-236 227 -231 0
227 231 236 0
-227 -231 236 0
239 243 244 0
-239 -243 244 0
-241 242 243 0
241 -242 243 0
-241 -242 243 0
-219 -240 241 0
-2 2 240 0
-211 -215 242 0
-243 241 242 0
-241 219 0
-241 240 0
-240 2 0
-240 -2 0
-242 211 0
-242 215 0
246 -247 248 0
-246 247 248 0
-247 -235 239 0
-247 235 -239 0
235 239 247 0
-235 -239 247 0
250 -251 252 0
-250 251 252 0
-251 -223 246 0
-251 223 -246 0
223 246 251 0
-223 -246 251 0
254 255 256 0
-254 -255 256 0
-2 -50 255 0
-255 2 0
-255 50 0
258 259 260 0
-258 -259 260 0
-7 -17 259 0
-259 7 0
-259 17 0
262 258 263 0
-262 -258 263 0
265 266 267 0
-265 -266 267 0
-26 -3 266 0
-266 26 0
-266 3 0
269 270 271 0
-269 -270 271 0
-63 -8 270 0
-270 63 0
-270 8 0
273 -274 275 0
-273 274 275 0
-274 -265 269 0
-274 265 -269 0
265 269 274 0
-265 -269 274 0
277 280 281 0
-277 -280 281 0
-278 279 280 0
278 -279 280 0
-278 -279 280 0
-235 -239 278 0
-227 -231 279 0
-280 278 279 0
-278 235 0
-278 239 0
-279 227 0
-279 231 0
283 -284 285 0
-283 284 285 0
-284 -273 277 0
-284 273 -277 0
273 277 284 0
-273 -277 284 0
287 283 288 0
-287 -283 288 0
290 294 295 0
-290 -294 295 0
-292 293 294 0
292 -293 294 0
-292 -293 294 0
-250 -291 292 0
-2 2 291 0
-223 -246 293 0
-294 292 293 0
-292 250 0
-292 291 0
-291 2 0
-291 -2 0
-293 223 0
-293 246 0
297 -299 300 0
-297 299 300 0
-299 -298 290 0
-299 298 -290 0
298 290 299 0
-298 -290 299 0
302 -303 304 0
-302 303 304 0
-303 -254 297 0
-303 254 -297 0
254 297 303 0
-254 -297 303 0
306 307 308 0
-306 -307 308 0
-7 -50 307 0
-307 7 0
-307 50 0
310 311 312 0
-310 -311 312 0
-26 -17 311 0
-311 26 0
-311 17 0
314 315 316 0
-314 -315 316 0
-63 -3 315 0
-315 63 0
-315 3 0
318 -320 321 0
-318 320 321 0
-320 -314 319 0
-320 314 -319 0
-319 2 0
-319 -2 0
-2 2 319 0
314 319 320 0
-314 -319 320 0
-2 2 319 0
-319 2 0
-319 -2 0
323 326 327 0
-323 -326 327 0
-324 325 326 0
324 -325 326 0
-324 -325 326 0
-273 -277 324 0
-265 -269 325 0
-326 324 325 0
-324 273 0
-324 277 0
-325 265 0
-325 269 0
329 -330 331 0
-329 330 331 0
-330 -318 323 0
-330 318 -323 0
318 323 330 0
-318 -323 330 0
333 -334 335 0
-333 334 335 0
-334 -310 329 0
-334 310 -329 0
310 329 334 0
-310 -329 334 0
337 340 341 0
-337 -340 341 0
-338 339 340 0
338 -339 340 0
-338 -339 340 0
-298 -290 338 0
-258 -283 339 0
-340 338 339 0
-338 298 0
-338 290 0
-339 258 0
-339 283 0
343 -344 345 0
-343 344 345 0
-344 -333 337 0
-344 333 -337 0
333 337 344 0
-333 -337 344 0
347 -348 349 0
-347 348 349 0
-348 -306 343 0
-348 306 -343 0
306 343 348 0
-306 -343 348 0
351 353 354 0
-351 -353 354 0
-302 -352 353 0
-2 2 352 0
-353 302 0
-353 352 0
-352 2 0
-352 -2 0
356 357 358 0
-356 -357 358 0
-254 -297 357 0
-357 254 0
-357 297 0
360 361 362 0
-360 -361 362 0
-26 -50 361 0
-361 26 0
-361 50 0
364 365 366 0
-364 -365 366 0
-63 -17 365 0
-365 63 0
-365 17 0
368 314 369 0
-368 -314 369 0
371 374 375 0
-371 -374 375 0
-372 373 374 0
372 -373 374 0
-372 -373 374 0
-318 -323 372 0
-374 372 373 0
-372 318 0
-372 323 0
377 -378 379 0
-377 378 379 0
-378 -364 371 0
-378 364 -371 0
364 371 378 0
-364 -371 378 0
381 384 385 0
-381 -384 385 0
-382 383 384 0
382 -383 384 0
-382 -383 384 0
-333 -337 382 0
-310 -329 383 0
-384 382 383 0
-382 333 0
-382 337 0
-383 310 0
-383 329 0
387 -388 389 0
-387 388 389 0
-388 -377 381 0
-388 377 -381 0
377 381 388 0
-377 -381 388 0
391 -392 393 0
-391 392 393 0
-392 -360 387 0
-392 360 -387 0
360 387 392 0
-360 -387 392 0
395 399 400 0
-395 -399 400 0
-397 398 399 0
397 -398 399 0
-397 -398 399 0
-347 -396 397 0
-306 -343 398 0
-399 397 398 0
-397 347 0
-397 396 0
-398 306 0
-398 343 0
402 403 404 0
-402 -403 404 0
-63 -50 403 0
-403 63 0
-403 50 0
406 409 410 0
-406 -409 410 0
-407 408 409 0
407 -408 409 0
-407 -408 409 0
-377 -381 407 0
364 371 408 0
-364 -371 408 0
-409 407 408 0
-407 377 0
-407 381 0
-408 -364 371 0
-408 364 -371 0
412 -413 414 0
-412 413 414 0
-413 -402 406 0
-413 402 -406 0
402 406 413 0
-402 -406 413 0
416 419 420 0
-416 -419 420 0
-417 418 419 0
417 -418 419 0
-417 -418 419 0
-391 -395 417 0
-360 -387 418 0
-419 417 418 0
-417 391 0
-417 395 0
-418 360 0
-418 387 0
-462 454 0
-462 461 0
-454 450 0
-454 453 0
-450 446 0
-450 449 0
-446 442 0
-446 445 0
-442 436 0
-442 441 0
-436 430 0
-436 435 0
-430 424 0
-430 429 0
-424 -422 423 0
-424 422 -423 0
-422 2 0
-422 8 0
-423 2 0
-423 8 0
-2 -8 422 0
-2 -8 423 0
-429 426 -428 0
-429 -426 428 0
219 425 426 0
-219 -425 426 0
-2 2 425 0
-425 2 0
-425 -2 0
12 427 428 0
-12 -427 428 0
-2 2 427 0
-427 2 0
-427 -2 0
-426 -219 425 0
-426 219 -425 0
-425 2 0
-425 -2 0
-2 2 425 0
-428 -12 427 0
-428 12 -427 0
-427 2 0
-427 -2 0
-2 2 427 0
-435 432 -434 0
-435 -432 434 0
250 431 432 0
-250 -431 432 0
-2 2 431 0
-431 2 0
-431 -2 0
45 433 434 0
-45 -433 434 0
-2 2 433 0
-433 2 0
-433 -2 0
-432 -250 431 0
-432 250 -431 0
-431 2 0
-431 -2 0
-2 2 431 0
-434 -45 433 0
-434 45 -433 0
-433 2 0
-433 -2 0
-2 2 433 0
-441 438 -440 0
-441 -438 440 0
302 437 438 0
-302 -437 438 0
-2 2 437 0
-437 2 0
-437 -2 0
96 439 440 0
-96 -439 440 0
-2 2 439 0
-439 2 0
-439 -2 0
-438 -302 437 0
-438 302 -437 0
-437 2 0
-437 -2 0
-2 2 437 0
-440 -96 439 0
-440 96 -439 0
-439 2 0
-439 -2 0
-2 2 439 0
-445 443 -444 0
-445 -443 444 0
347 396 443 0
-347 -396 443 0
141 145 444 0
-141 -145 444 0
-443 -347 396 0
-443 347 -396 0
-444 -141 145 0
-444 141 -145 0
-449 447 -448 0
-449 -447 448 0
391 395 447 0
-391 -395 447 0
181 185 448 0
-181 -185 448 0
-447 -391 395 0
-447 391 -395 0
-448 -181 185 0
-448 181 -185 0
-453 451 -452 0
-453 -451 452 0
412 416 451 0
-412 -416 451 0
201 205 452 0
-201 -205 452 0
-451 -412 416 0
-451 412 -416 0
-452 -201 205 0
-452 201 -205 0
-461 -457 460 0
-461 457 -460 0
-457 455 456 0
-455 412 0
-455 416 0
-456 402 0
-456 406 0
-460 458 459 0
-458 201 0
-458 205 0
-459 191 0
-459 195 0
-455 456 457 0
455 -456 457 0
-455 -456 457 0
-412 -416 455 0
-402 -406 456 0
-458 459 460 0
458 -459 460 0
-458 -459 460 0
-201 -205 458 0
-191 -195 459 0
1356 0
2 -1357 0
3 -1357 0
-2 -3 1357 0
7 -1358 0
8 -1358 0
-7 -8 1358 0
1 -1359 0
6 -1359 0
-1 -6 1359 0
-1 -1360 0
-6 -1360 0
1 6 1360 0
-1359 -1361 0
-1360 -1361 0
1359 1360 1361 0
2 -1362 0
17 -1362 0
-2 -17 1362 0
7 -1363 0
3 -1363 0
-7 -3 1363 0
26 -1364 0
8 -1364 0
-26 -8 1364 0
21 -1365 0
25 -1365 0
-21 -25 1365 0
-21 -1366 0
-25 -1366 0
21 25 1366 0
-1365 -1367 0
-1366 -1367 0
1365 1366 1367 0
-36 -1368 0
-37 -1368 0
36 37 1368 0
34 -1369 0
30 -1369 0
-34 -30 1369 0
-34 -1370 0
-30 -1370 0
34 30 1370 0
-1369 -1371 0
-1370 -1371 0
1369 1370 1371 0
16 -1372 0
41 -1372 0
-16 -41 1372 0
-16 -1373 0
-41 -1373 0
16 41 1373 0
-1372 -1374 0
-1373 -1374 0
1372 1373 1374 0
50 -1375 0
2 -1375 0
-50 -2 1375 0
7 -1376 0
17 -1376 0
-7 -17 1376 0
26 -1377 0
3 -1377 0
-26 -3 1377 0
63 -1378 0
8 -1378 0
-63 -8 1378 0
58 -1379 0
62 -1379 0
-58 -62 1379 0
-58 -1380 0
-62 -1380 0
58 62 1380 0
-1379 -1381 0
-1380 -1381 0
1379 1380 1381 0
-72 -1382 0
-73 -1382 0
72 73 1382 0
67 -1383 0
71 -1383 0
-67 -71 1383 0
-67 -1384 0
-71 -1384 0
67 71 1384 0
-1383 -1385 0
-1384 -1385 0
1383 1384 1385 0
77 -1386 0
54 -1386 0
-77 -54 1386 0
-77 -1387 0
-54 -1387 0
77 54 1387 0
-1386 -1388 0
-1387 -1388 0
1386 1387 1388 0
-87 -1389 0
88 -1389 0
87 -88 1389 0
81 -1390 0
85 -1390 0
-81 -85 1390 0
-81 -1391 0
-85 -1391 0
81 85 1391 0
-1390 -1392 0
-1391 -1392 0
1390 1391 1392 0
49 -1393 0
92 -1393 0
-49 -92 1393 0
-49 -1394 0
-92 -1394 0
49 92 1394 0
-1393 -1395 0
-1394 -1395 0
1393 1394 1395 0
50 -1396 0
7 -1396 0
-50 -7 1396 0
26 -1397 0
17 -1397 0
-26 -17 1397 0
3 -1398 0
63 -1398 0
-3 -63 1398 0
-108 -1399 0
-113 -1399 0
108 113 1399 0
-118 -1400 0
-119 -1400 0
118 119 1400 0
112 -1401 0
117 -1401 0
-112 -117 1401 0
-112 -1402 0
-117 -1402 0
112 117 1402 0
-1401 -1403 0
-1402 -1403 0
1401 1402 1403 0
123 -1404 0
104 -1404 0
-123 -104 1404 0
-123 -1405 0
-104 -1405 0
123 104 1405 0
-1404 -1406 0
-1405 -1406 0
1404 1405 1406 0
-132 -1407 0
-133 -1407 0
132 133 1407 0
127 -1408 0
131 -1408 0
-127 -131 1408 0
-127 -1409 0
-131 -1409 0
127 131 1409 0
-1408 -1410 0
-1409 -1410 0
1408 1409 1410 0
137 -1411 0
100 -1411 0
-137 -100 1411 0
-137 -1412 0
-100 -1412 0
137 100 1412 0
-1411 -1413 0
-1412 -1413 0
1411 1412 1413 0
-147 -1414 0
148 -1414 0
147 -148 1414 0
50 -1415 0
26 -1415 0
-50 -26 1415 0
17 -1416 0
63 -1416 0
-17 -63 1416 0
161 -1417 0
-163 -1417 0
-161 163 1417 0
156 -1418 0
160 -1418 0
-156 -160 1418 0
-156 -1419 0
-160 -1419 0
156 160 1419 0
-1418 -1420 0
-1419 -1420 0
1418 1419 1420 0
-172 -1421 0
-173 -1421 0
172 173 1421 0
167 -1422 0
171 -1422 0
-167 -171 1422 0
-167 -1423 0
-171 -1423 0
167 171 1423 0
-1422 -1424 0
-1423 -1424 0
1422 1423 1424 0
152 -1425 0
177 -1425 0
-152 -177 1425 0
-152 -1426 0
-177 -1426 0
152 177 1426 0
-1425 -1427 0
-1426 -1427 0
1425 1426 1427 0
141 -1428 0
145 -1428 0
-141 -145 1428 0
-186 -1429 0
-187 -1429 0
186 187 1429 0
50 -1430 0
63 -1430 0
-50 -63 1430 0
-196 -1431 0
-197 -1431 0
196 197 1431 0
195 -1432 0
191 -1432 0
-195 -191 1432 0
-195 -1433 0
-191 -1433 0
195 191 1433 0
-1432 -1434 0
-1433 -1434 0
1432 1433 1434 0
185 -1435 0
181 -1435 0
-185 -181 1435 0
-206 -1436 0
-207 -1436 0
206 207 1436 0
215 -1437 0
211 -1437 0
-215 -211 1437 0
-215 -1438 0
-211 -1438 0
215 211 1438 0
-1437 -1439 0
-1438 -1439 0
1437 1438 1439 0
227 -1440 0
231 -1440 0
-227 -231 1440 0
-227 -1441 0
-231 -1441 0
227 231 1441 0
-1440 -1442 0
-1441 -1442 0
1440 1441 1442 0
-241 -1443 0
242 -1443 0
241 -242 1443 0
235 -1444 0
239 -1444 0
-235 -239 1444 0
-235 -1445 0
-239 -1445 0
235 239 1445 0
-1444 -1446 0
-1445 -1446 0
1444 1445 1446 0
223 -1447 0
246 -1447 0
-223 -246 1447 0
-223 -1448 0
-246 -1448 0
223 246 1448 0
-1447 -1449 0
-1448 -1449 0
1447 1448 1449 0
265 -1450 0
269 -1450 0
-265 -269 1450 0
-265 -1451 0
-269 -1451 0
265 269 1451 0
-1450 -1452 0
-1451 -1452 0
1450 1451 1452 0
-278 -1453 0
-279 -1453 0
278 279 1453 0
273 -1454 0
277 -1454 0
-273 -277 1454 0
-273 -1455 0
-277 -1455 0
273 277 1455 0
-1454 -1456 0
-1455 -1456 0
1454 1455 1456 0
-292 -1457 0
293 -1457 0
292 -293 1457 0
254 -1458 0
297 -1458 0
-254 -297 1458 0
-254 -1459 0
-297 -1459 0
254 297 1459 0
-1458 -1460 0
-1459 -1460 0
1458 1459 1460 0
-314 -1461 0
-319 -1461 0
314 319 1461 0
-324 -1462 0
-325 -1462 0
324 325 1462 0
318 -1463 0
323 -1463 0
-318 -323 1463 0
-318 -1464 0
-323 -1464 0
318 323 1464 0
-1463 -1465 0
-1464 -1465 0
1463 1464 1465 0
310 -1466 0
329 -1466 0
-310 -329 1466 0
-310 -1467 0
-329 -1467 0
310 329 1467 0
-1466 -1468 0
-1467 -1468 0
1466 1467 1468 0
290 -1469 0
299 -1469 0
-290 -299 1469 0
283 -1470 0
258 -1470 0
-283 -258 1470 0
-338 -1471 0
-339 -1471 0
338 339 1471 0
333 -1472 0
337 -1472 0
-333 -337 1472 0
-333 -1473 0
-337 -1473 0
333 337 1473 0
-1472 -1474 0
-1473 -1474 0
1472 1473 1474 0
343 -1475 0
306 -1475 0
-343 -306 1475 0
-343 -1476 0
-306 -1476 0
343 306 1476 0
-1475 -1477 0
-1476 -1477 0
1475 1476 1477 0
364 -1478 0
-371 -1478 0
-364 371 1478 0
-364 -1479 0
371 -1479 0
364 -371 1479 0
-1478 -1480 0
-1479 -1480 0
1478 1479 1480 0
-382 -1481 0
-383 -1481 0
382 383 1481 0
377 -1482 0
381 -1482 0
-377 -381 1482 0
-377 -1483 0
-381 -1483 0
377 381 1483 0
-1482 -1484 0
-1483 -1484 0
1482 1483 1484 0
387 -1485 0
360 -1485 0
-387 -360 1485 0
-387 -1486 0
-360 -1486 0
387 360 1486 0
-1485 -1487 0
-1486 -1487 0
1485 1486 1487 0
-397 -1488 0
-398 -1488 0
397 398 1488 0
-407 -1489 0
-408 -1489 0
407 408 1489 0
402 -1490 0
406 -1490 0
-402 -406 1490 0
-402 -1491 0
-406 -1491 0
402 406 1491 0
-1490 -1492 0
-1491 -1492 0
1490 1491 1492 0
395 -1493 0
391 -1493 0
-395 -391 1493 0
-417 -1494 0
-418 -1494 0
417 418 1494 0
2 -1495 0
8 -1495 0
-2 -8 1495 0
-219 -1496 0
-425 -1496 0
219 425 1496 0
-12 -1497 0
-427 -1497 0
12 427 1497 0
-250 -1498 0
-431 -1498 0
250 431 1498 0
-45 -1499 0
-433 -1499 0
45 433 1499 0
-302 -1500 0
-437 -1500 0
302 437 1500 0
-96 -1501 0
-439 -1501 0
96 439 1501 0
-141 -1502 0
-145 -1502 0
141 145 1502 0
-1428 -1503 0
-1502 -1503 0
1428 1502 1503 0
-395 -1504 0
-391 -1504 0
395 391 1504 0
-1493 -1505 0
-1504 -1505 0
1493 1504 1505 0
-185 -1506 0
-181 -1506 0
185 181 1506 0
-1435 -1507 0
-1506 -1507 0
1435 1506 1507 0
412 -1508 0
416 -1508 0
-412 -416 1508 0
-412 -1509 0
-416 -1509 0
412 416 1509 0
-1508 -1510 0
-1509 -1510 0
1508 1509 1510 0
205 -1511 0
201 -1511 0
-205 -201 1511 0
-205 -1512 0
-201 -1512 0
205 201 1512 0
-1511 -1513 0
-1512 -1513 0
1511 1512 1513 0
-455 -1514 0
-456 -1514 0
455 456 1514 0
-458 -1515 0
-459 -1515 0
458 459 1515 0
